stage = B;
SUITOR = { S1 };
LiuBei = S1;
n = 5 + 5 ;
suitor = [ S1, S1, S1, S1, S1, S1, S1, S1, S1, S1 ];

mintime = [|  1, 1, 1 |];
 
maxtime = [|  3, 2, 2 |];

move = [|  0, 0, 0
        |  0, 0, 0
        |  0, 0, 0 |];
 
ndays = 3;
earliest = 8;
latest = 18;

lessontime = 2;
minsep = 0;

usedstart = [ 10, 12, 14 ];
useddur   = [ 1, 2, 1 ];

